32
3 0 31 0
3 0 29 0
3 0 28 0
3 0 25 0
3 0 24 0
3 0 23 0
3 0 22 0
3 0 21 0
3 0 20 0
3 0 19 0
3 0 18 0
3 0 17 0
3 0 16 0
3 0 15 0
3 0 14 0
3 0 13 0
3 0 12 0
3 0 11 0
3 0 10 0
3 0 9 0
3 0 8 0
3 0 7 0
3 0 6 0
3 0 5 0
3 0 4 0
3 0 3 0
3 0 2 0
3 0 1 0
4 0 35 36 0
4 0 32 34 0
4 0 27 33 0
4 0 26 30 0
